db/data/3954635932076610714026862333264350.z3.out
-------------------
2500.199368333
